   0   41800   82650
   1   41966   82533
   2   41983   82933
   3   42033   82750
   4   42033   82916
   5   42050   82583
   6   42100   82450
   7   42100   83100
   8   42133   82750
   9   42150   82966